(declare-fun bvlambda_7_ () (_ BitVec 4))
(declare-fun a49 () (Array (_ BitVec 11) (_ BitVec 16)))
(declare-fun a50 () (Array (_ BitVec 1) (_ BitVec 4)))
(assert
(let (($e1 false    ))
(let (($e5 (_ bv14 4)))
(let (($e17 (_ bv0 11)))
(let (($e64        a50                           ))
(let (($e65        $e64                           ))
(let (($e73 (select a50 $e1)))
(let (($e185 (select a49 $e17)))
(let (($e194 (   extract      $e185)))
(let (($e195 (store $e65 true        $e5)))
(let (($e196 (store $e195 $e194 bvlambda_7_)))
(let (($e197 (select $e196 true       )))
                  (= $e73 $e197)
                                                                                                                                                                                                           ))))        )                                                                                                               )       ))                            )           )   ))
